(set-logic HORN)
(set-info :source |
    Benchmark: C_VC
    Output by Princess (http://www.philipp.ruemmer.org/princess.shtml)
|)
(set-info :status sat)
;===============================================================================
; Encoding of Heap sorts and operations
;-------------------------------------------------------------------------------
(define-sort Addr() Int)
(declare-datatypes ((HeapObject 0) (node 0))
                   (((O_Int (getInt Int)) (O_Addr (getAddr Addr)) (O_node (getnode node)) (defObj))
                   ((node (left Addr) (right Addr) (parent Addr) (value Int)))))
(declare-datatypes ((AllocResHeap 0) (Heap 0))
                   (((AllocResHeap   (newHeap Heap) (newAddr Addr)))
                    ((HeapCtor (HeapSize Int)
                               (HeapContents (Array Addr HeapObject))))))
(define-fun nullAddr  () Addr 0)
(define-fun defHeapObject    () HeapObject defObj)
(define-fun valid     ((h Heap) (p Addr)) Bool
  (and (>= (HeapSize h) p) (> p 0)))
(define-fun emptyHeap () Heap (
  HeapCtor 0 (( as const (Array Addr HeapObject)) defHeapObject)))
(define-fun read ((h Heap) (p Addr)) HeapObject
  (ite (valid h p)
       (select (HeapContents h) p)
       defHeapObject))
(define-fun write ((h Heap) (p Addr) (o HeapObject)) Heap
  (ite (valid h p)
       (HeapCtor (HeapSize h) (store (HeapContents h) p o))
       h))
(define-fun alloc   ((h Heap) (o HeapObject)) AllocResHeap
  (AllocResHeap (HeapCtor (+ 1 (HeapSize h))
                    (store (HeapContents h) (+ 1 (HeapSize h)) o))
          (+ 1 (HeapSize h))))

;===============================================================================
(declare-fun inv_main13 (Heap Addr Addr) Bool)
(declare-fun inv_main16 (Heap Addr Addr) Bool)
(declare-fun inv_main19 (Heap Addr Addr) Bool)
(declare-fun inv_main2 (Heap) Bool)
(declare-fun inv_main23 (Heap Addr Addr Int) Bool)
(declare-fun inv_main27 (Heap Addr Addr) Bool)
(declare-fun inv_main28 (Heap Addr Addr) Bool)
(declare-fun inv_main33 (Heap Addr Addr Addr) Bool)
(declare-fun inv_main34 (Heap Addr Addr) Bool)
(declare-fun inv_main37 (Heap Addr Addr) Bool)
(declare-fun inv_main38 (Heap Addr Addr) Bool)
(declare-fun inv_main39 (Heap Addr Addr) Bool)
(declare-fun inv_main40 (Heap Addr Addr) Bool)
(declare-fun inv_main54 (Heap Addr Addr) Bool)
(declare-fun inv_main58 (Heap Addr Addr) Bool)
(declare-fun inv_main59 (Heap Addr Addr) Bool)
(declare-fun inv_main60 (Heap Addr Addr) Bool)
(declare-fun inv_main66 (Heap Addr Addr) Bool)
(declare-fun inv_main7 (Heap Addr Addr) Bool)
(declare-fun inv_main70 (Heap Addr Addr) Bool)
(declare-fun inv_main74 (Heap Addr Addr) Bool)
(declare-fun inv_main85 (Heap Addr Addr Addr) Bool)
(declare-fun inv_main86 (Heap Addr Addr Addr) Bool)
(declare-fun inv_main92 (Heap Addr Addr Addr) Bool)
(declare-fun inv_main93 (Heap Addr Addr Addr) Bool)
(declare-fun inv_main94 (Heap Addr Addr Addr) Bool)
(declare-fun inv_main97 (Heap Addr Addr Addr) Bool)
(declare-fun inv_main99 (Heap Addr Addr Addr) Bool)
(assert (inv_main2 emptyHeap))
(assert (forall ((var0 Addr) (var1 Addr) (var2 Heap) (var3 Addr)) (or (not (and (inv_main92 var2 var0 var1 var3) (not (= (left (getnode (read var2 var1))) nullAddr)))) (inv_main94 var2 var0 var1 var3))))
(assert (forall ((var0 Addr) (var1 Addr) (var2 Heap)) (or (not (inv_main37 var2 var1 var0)) (inv_main38 (write var2 (left (getnode (read var2 var0))) (O_node (node (left (getnode (read var2 (left (getnode (read var2 var0)))))) nullAddr (parent (getnode (read var2 (left (getnode (read var2 var0)))))) (value (getnode (read var2 (left (getnode (read var2 var0))))))))) var1 var0))))
(assert (forall ((var0 Addr) (var1 Addr) (var2 Heap)) (or (not (inv_main34 var2 var1 var0)) (inv_main37 (write var2 (left (getnode (read var2 var0))) (O_node (node nullAddr (right (getnode (read var2 (left (getnode (read var2 var0)))))) (parent (getnode (read var2 (left (getnode (read var2 var0)))))) (value (getnode (read var2 (left (getnode (read var2 var0))))))))) var1 var0))))
(assert (forall ((var0 Addr) (var1 Addr) (var2 Heap) (var3 Addr)) (or (not (inv_main94 var2 var0 var1 var3)) (inv_main93 (write var2 (left (getnode (read var2 var1))) defObj) var0 var1 var3))))
(assert (forall ((var0 Addr) (var1 Addr) (var2 Heap) (var3 Addr)) (or (not (and (inv_main92 var2 var0 var1 var3) (= (left (getnode (read var2 var1))) nullAddr))) (inv_main93 var2 var0 var1 var3))))
(assert (forall ((var0 Addr) (var1 Addr) (var2 Heap)) (or (not (inv_main13 var2 var1 var0)) (inv_main16 (write var2 var0 (O_node (node nullAddr (right (getnode (read var2 var0))) (parent (getnode (read var2 var0))) (value (getnode (read var2 var0)))))) var1 var0))))
(assert (forall ((var0 Addr) (var1 Addr) (var2 Heap) (var3 Addr) (var4 Heap) (var5 Addr) (var6 Addr)) (or (not (and (inv_main70 var4 var1 var3) (and (not (= var5 nullAddr)) (and (and (and (= var2 var4) (= var6 var1)) (= var0 var3)) (= var5 (parent (getnode (read var4 var3)))))))) (inv_main58 var2 var6 var5))))
(assert (forall ((var0 Addr) (var1 Addr) (var2 Heap)) (or (not (and (inv_main27 var2 var1 var0) (and (and (not (= var1 nullAddr)) (not (= var1 nullAddr))) (and (not (= var1 nullAddr)) (= var0 nullAddr))))) (inv_main58 var2 var1 var1))))
(assert (forall ((var0 Addr) (var1 Addr) (var2 Heap)) (or (not (inv_main39 var2 var1 var0)) (inv_main40 (write var2 (left (getnode (read var2 var0))) (O_node (node (left (getnode (read var2 (left (getnode (read var2 var0)))))) (right (getnode (read var2 (left (getnode (read var2 var0)))))) var0 (value (getnode (read var2 (left (getnode (read var2 var0))))))))) var1 var0))))
(assert (forall ((var0 Addr) (var1 Addr) (var2 Heap)) (or (not (and (inv_main59 var2 var0 var1) (= (value (getnode (read var2 var1))) 0))) (inv_main74 var2 var0 var1))))
(assert (forall ((var0 Addr) (var1 Addr) (var2 Addr) (var3 Addr) (var4 Heap) (var5 Addr) (var6 Heap) (var7 Addr)) (or (not (and (inv_main97 var6 var0 var2 var7) (and (and (and (= var4 (write var6 (right (getnode (read var6 var2))) defObj)) (= var5 var0)) (= var3 var2)) (= var1 var7)))) (inv_main99 var4 var5 var3 var3))))
(assert (forall ((var0 Addr) (var1 Addr) (var2 Heap) (var3 Addr)) (or (not (and (inv_main93 var2 var0 var1 var3) (= (right (getnode (read var2 var1))) nullAddr))) (inv_main99 var2 var0 var1 var1))))
(assert (forall ((var0 Addr) (var1 Addr) (var2 Addr) (var3 Addr) (var4 Int) (var5 Heap) (var6 Heap)) (or (not (and (inv_main19 var6 var3 var2) (and (= var4 0) (and (and (= var5 (write var6 var3 (O_node (node (left (getnode (read var6 var3))) (right (getnode (read var6 var3))) var2 (value (getnode (read var6 var3))))))) (= var0 var3)) (= var1 var2))))) (inv_main23 var5 var0 var1 1))))
(assert (forall ((var0 Addr) (var1 Heap) (var2 Int) (var3 Addr) (var4 Addr) (var5 Addr) (var6 Heap)) (or (not (and (inv_main19 var6 var4 var3) (and (not (= var2 0)) (and (and (= var1 (write var6 var4 (O_node (node (left (getnode (read var6 var4))) (right (getnode (read var6 var4))) var3 (value (getnode (read var6 var4))))))) (= var0 var4)) (= var5 var3))))) (inv_main23 var1 var0 var5 var2))))
(assert (forall ((var0 Heap) (var1 Addr) (var2 Addr) (var3 Addr) (var4 Heap) (var5 Addr) (var6 Int)) (or (not (and (inv_main16 var4 var3 var2) (and (= var6 0) (and (= var1 nullAddr) (and (and (= var0 (write var4 var2 (O_node (node (left (getnode (read var4 var2))) var3 (parent (getnode (read var4 var2))) (value (getnode (read var4 var2))))))) (= var1 var3)) (= var5 var2)))))) (inv_main23 var0 var1 var5 1))))
(assert (forall ((var0 Heap) (var1 Addr) (var2 Addr) (var3 Addr) (var4 Heap) (var5 Addr) (var6 Int)) (or (not (and (inv_main16 var4 var3 var2) (and (not (= var6 0)) (and (= var1 nullAddr) (and (and (= var0 (write var4 var2 (O_node (node (left (getnode (read var4 var2))) var3 (parent (getnode (read var4 var2))) (value (getnode (read var4 var2))))))) (= var1 var3)) (= var5 var2)))))) (inv_main23 var0 var1 var5 var6))))
(assert (forall ((var0 Int) (var1 Addr) (var2 Addr) (var3 Addr) (var4 Int) (var5 Heap) (var6 Addr) (var7 Heap)) (or (not (and (inv_main23 var5 var3 var2 var4) (and (and (and (= var7 (write var5 var2 (O_node (node (left (getnode (read var5 var2))) (right (getnode (read var5 var2))) (parent (getnode (read var5 var2))) var4)))) (= var6 var3)) (= var1 var2)) (= var0 var4)))) (inv_main7 var7 var1 var1))))
(assert (forall ((var0 Heap) (var1 Addr) (var2 Heap)) (or (not (and (inv_main2 var2) (and (= var0 var2) (= var1 nullAddr)))) (inv_main7 var0 var1 nullAddr))))
(assert (forall ((var0 Addr) (var1 Addr) (var2 Addr) (var3 Addr) (var4 Heap) (var5 Heap) (var6 Int)) (or (not (and (inv_main60 var4 var0 var3) (and (not (= var6 42)) (and (and (and (= var5 var4) (= var1 var0)) (= var2 var3)) (= var6 (value (getnode (read var4 (left (getnode (read var4 var3))))))))))) (inv_main66 var5 var1 var2))))
(assert (forall ((var0 Addr) (var1 Addr) (var2 Heap)) (or (not (and (inv_main27 var2 var1 var0) (and (= var1 nullAddr) (and (not (= var1 nullAddr)) (= var0 nullAddr))))) (inv_main54 var2 var1 var1))))
(assert (forall ((var0 Addr) (var1 Addr) (var2 Heap)) (or (not (inv_main38 var2 var1 var0)) (inv_main39 (write var2 (left (getnode (read var2 var0))) (O_node (node (left (getnode (read var2 (left (getnode (read var2 var0)))))) (right (getnode (read var2 (left (getnode (read var2 var0)))))) (parent (getnode (read var2 (left (getnode (read var2 var0)))))) 42))) var1 var0))))
(assert (forall ((var0 Addr) (var1 Heap) (var2 Addr) (var3 Addr) (var4 Addr) (var5 Heap)) (or (not (and (inv_main16 var5 var3 var2) (and (not (= var4 nullAddr)) (and (and (= var1 (write var5 var2 (O_node (node (left (getnode (read var5 var2))) var3 (parent (getnode (read var5 var2))) (value (getnode (read var5 var2))))))) (= var4 var3)) (= var0 var2))))) (inv_main19 var1 var4 var0))))
(assert (forall ((var0 Addr) (var1 Addr) (var2 Heap)) (or (not (and (inv_main58 var2 var0 var1) (not (= (left (getnode (read var2 var1))) nullAddr)))) (inv_main60 var2 var0 var1))))
(assert (forall ((var0 Addr) (var1 Addr) (var2 Addr) (var3 Addr) (var4 Addr) (var5 Heap) (var6 Addr) (var7 Addr) (var8 Heap)) (or (not (and (inv_main86 var5 var0 var1 var7) (and (and (and (and (= var8 var5) (= var6 var0)) (= var3 var1)) (= var2 var7)) (= var4 (right (getnode (read var5 var1))))))) (inv_main85 var8 var6 var4 var2))))
(assert (forall ((var0 Addr) (var1 Addr) (var2 Addr) (var3 Addr) (var4 Heap) (var5 Addr) (var6 Addr) (var7 Heap) (var8 Addr) (var9 Addr) (var10 Heap)) (or (not (and (inv_main70 var7 var1 var6) (and (and (and (and (= var10 var4) (= var5 var9)) (= var3 var9)) (= var2 nullAddr)) (and (= var8 nullAddr) (and (and (and (= var4 var7) (= var9 var1)) (= var0 var6)) (= var8 (parent (getnode (read var7 var6))))))))) (inv_main85 var10 var5 var3 var2))))
(assert (forall ((var0 Heap) (var1 Addr) (var2 Addr) (var3 Addr) (var4 Heap) (var5 Addr) (var6 Addr)) (or (not (and (inv_main27 var4 var3 var2) (and (and (and (and (= var0 var4) (= var1 var3)) (= var6 var3)) (= var5 nullAddr)) (and (and (= var3 nullAddr) (not (= var3 nullAddr))) (and (not (= var3 nullAddr)) (= var2 nullAddr)))))) (inv_main85 var0 var1 var6 var5))))
(assert (forall ((var0 Addr) (var1 Addr) (var2 Heap)) (or (not (and (inv_main59 var2 var0 var1) (not (= (value (getnode (read var2 var1))) 0)))) (inv_main70 var2 var0 var1))))
(assert (forall ((var0 Addr) (var1 Addr) (var2 Heap) (var3 Addr)) (or (not (and (inv_main93 var2 var0 var1 var3) (not (= (right (getnode (read var2 var1))) nullAddr)))) (inv_main97 var2 var0 var1 var3))))
(assert (forall ((var0 Addr) (var1 Addr) (var2 Addr) (var3 Addr) (var4 Addr) (var5 Addr) (var6 Heap) (var7 Addr) (var8 Heap)) (or (not (and (inv_main85 var6 var0 var3 var7) (and (not (= var5 nullAddr)) (and (and (and (and (= var8 var6) (= var1 var0)) (= var2 var3)) (= var4 var7)) (= var5 (right (getnode (read var6 var3)))))))) (inv_main86 var8 var1 var2 var4))))
(assert (forall ((var0 Heap) (var1 Addr) (var2 Addr) (var3 Addr) (var4 Addr) (var5 Addr) (var6 Heap)) (or (not (and (inv_main33 var6 var5 var4 var1) (and (not (= var3 nullAddr)) (and (and (= var0 (write var6 var4 (O_node (node var1 (right (getnode (read var6 var4))) (parent (getnode (read var6 var4))) (value (getnode (read var6 var4))))))) (= var2 var5)) (= var3 var4))))) (inv_main34 var0 var2 var3))))
(assert (forall ((var0 node) (var1 Addr) (var2 Addr) (var3 Heap)) (or (not (and (inv_main27 var3 var2 var1) (not (= var1 nullAddr)))) (inv_main33 (newHeap (alloc var3 (O_node var0))) var2 var1 (newAddr (alloc var3 (O_node var0)))))))
(assert (forall ((var0 node) (var1 Addr) (var2 Heap) (var3 Addr) (var4 Addr) (var5 Addr) (var6 Heap) (var7 Addr) (var8 Int)) (or (not (and (inv_main7 var6 var4 var3) (and (not (= var7 nullAddr)) (and (and (and (and (= var2 (newHeap (alloc var6 (O_node var0)))) (= var1 var4)) (= var5 var3)) (= var7 (newAddr (alloc var6 (O_node var0))))) (not (= var8 0)))))) (inv_main13 var2 var1 var7))))
(assert (forall ((var0 Int) (var1 Addr) (var2 Addr) (var3 Heap)) (or (not (and (inv_main7 var3 var2 var1) (and (not (= var1 nullAddr)) (= var0 0)))) (inv_main28 var3 var2 var1))))
(assert (forall ((var0 Addr) (var1 Addr) (var2 Heap)) (or (not (and (inv_main58 var2 var0 var1) (= (left (getnode (read var2 var1))) nullAddr))) (inv_main59 var2 var0 var1))))
(assert (forall ((var0 Addr) (var1 Int) (var2 Addr) (var3 Heap) (var4 Addr) (var5 Heap) (var6 Addr)) (or (not (and (inv_main60 var5 var0 var4) (and (= var1 42) (and (and (and (= var3 var5) (= var2 var0)) (= var6 var4)) (= var1 (value (getnode (read var5 (left (getnode (read var5 var4))))))))))) (inv_main59 var3 var2 var6))))
(assert (forall ((var0 Addr) (var1 Addr) (var2 Heap)) (or (not (inv_main28 var2 var1 var0)) (inv_main27 (write var2 var0 (O_node (node (left (getnode (read var2 var0))) (right (getnode (read var2 var0))) nullAddr (value (getnode (read var2 var0)))))) var1 var0))))
(assert (forall ((var0 Addr) (var1 Addr) (var2 Addr) (var3 Heap) (var4 Addr) (var5 Addr) (var6 Heap)) (or (not (and (inv_main40 var6 var5 var4) (and (and (and (= var3 var6) (= var0 var5)) (= var2 var4)) (= var1 (right (getnode (read var6 var4))))))) (inv_main27 var3 var0 var1))))
(assert (forall ((var0 Int) (var1 Addr) (var2 Addr) (var3 Heap)) (or (not (and (inv_main7 var3 var2 var1) (and (= var1 nullAddr) (= var0 0)))) (inv_main27 var3 var2 var1))))
(assert (forall ((var0 Addr) (var1 Heap) (var2 Addr) (var3 Addr) (var4 Addr) (var5 Addr) (var6 Heap) (var7 Addr) (var8 Addr)) (or (not (and (inv_main99 var6 var0 var2 var8) (and (not (= var5 nullAddr)) (and (and (and (and (= var1 var6) (= var3 var0)) (= var4 var2)) (= var7 var8)) (= var5 (parent (getnode (read var6 var2)))))))) (inv_main92 var1 var3 var5 var7))))
(assert (forall ((var0 Addr) (var1 Addr) (var2 Addr) (var3 Heap) (var4 Addr) (var5 Addr) (var6 Heap) (var7 Addr) (var8 Addr)) (or (not (and (inv_main85 var6 var0 var2 var7) (and (not (= var8 nullAddr)) (and (= var4 nullAddr) (and (and (and (and (= var3 var6) (= var5 var0)) (= var8 var2)) (= var1 var7)) (= var4 (right (getnode (read var6 var2))))))))) (inv_main92 var3 var5 var8 var1))))
(assert (forall ((var0 Addr) (var1 Addr) (var2 Heap)) (not (and (inv_main13 var2 var1 var0) (not (is-O_node (read var2 var0)))))))
(assert (forall ((var0 Addr) (var1 Addr) (var2 Heap)) (not (and (inv_main16 var2 var1 var0) (not (is-O_node (read var2 var0)))))))
(assert (forall ((var0 Addr) (var1 Addr) (var2 Heap)) (not (and (inv_main19 var2 var1 var0) (not (is-O_node (read var2 var1)))))))
(assert (forall ((var0 Addr) (var1 Addr) (var2 Int) (var3 Heap)) (not (and (inv_main23 var3 var1 var0 var2) (not (is-O_node (read var3 var0)))))))
(assert (forall ((var0 Addr) (var1 Addr) (var2 Heap)) (not (and (inv_main28 var2 var1 var0) (not (is-O_node (read var2 var0)))))))
(assert (forall ((var0 Addr) (var1 Addr) (var2 Addr) (var3 Heap)) (not (and (inv_main33 var3 var2 var1 var0) (not (is-O_node (read var3 var1)))))))
(assert (forall ((var0 Addr) (var1 Addr) (var2 Heap)) (not (and (inv_main34 var2 var1 var0) (not (is-O_node (read var2 var0)))))))
(assert (forall ((var0 Addr) (var1 Addr) (var2 Heap)) (not (and (inv_main34 var2 var1 var0) (not (is-O_node (read var2 (left (getnode (read var2 var0))))))))))
(assert (forall ((var0 Addr) (var1 Addr) (var2 Heap)) (not (and (inv_main37 var2 var1 var0) (not (is-O_node (read var2 var0)))))))
(assert (forall ((var0 Addr) (var1 Addr) (var2 Heap)) (not (and (inv_main37 var2 var1 var0) (not (is-O_node (read var2 (left (getnode (read var2 var0))))))))))
(assert (forall ((var0 Addr) (var1 Addr) (var2 Heap)) (not (and (inv_main38 var2 var1 var0) (not (is-O_node (read var2 var0)))))))
(assert (forall ((var0 Addr) (var1 Addr) (var2 Heap)) (not (and (inv_main38 var2 var1 var0) (not (is-O_node (read var2 (left (getnode (read var2 var0))))))))))
(assert (forall ((var0 Addr) (var1 Addr) (var2 Heap)) (not (and (inv_main39 var2 var1 var0) (not (is-O_node (read var2 var0)))))))
(assert (forall ((var0 Addr) (var1 Addr) (var2 Heap)) (not (and (inv_main39 var2 var1 var0) (not (is-O_node (read var2 (left (getnode (read var2 var0))))))))))
(assert (forall ((var0 Addr) (var1 Addr) (var2 Heap)) (not (and (inv_main40 var2 var1 var0) (not (is-O_node (read var2 var0)))))))
(assert (forall ((var0 Addr) (var1 Addr) (var2 Heap)) (not (inv_main54 var2 var0 var1))))
(assert (forall ((var0 Addr) (var1 Addr) (var2 Heap)) (not (and (inv_main58 var2 var0 var1) (not (is-O_node (read var2 var1)))))))
(assert (forall ((var0 Addr) (var1 Addr) (var2 Heap)) (not (and (inv_main60 var2 var0 var1) (not (is-O_node (read var2 var1)))))))
(assert (forall ((var0 Addr) (var1 Addr) (var2 Heap)) (not (and (inv_main60 var2 var0 var1) (not (is-O_node (read var2 (left (getnode (read var2 var1))))))))))
(assert (forall ((var0 Addr) (var1 Addr) (var2 Heap)) (not (inv_main66 var2 var0 var1))))
(assert (forall ((var0 Addr) (var1 Addr) (var2 Heap)) (not (and (inv_main59 var2 var0 var1) (not (is-O_node (read var2 var1)))))))
(assert (forall ((var0 Addr) (var1 Addr) (var2 Heap)) (not (inv_main74 var2 var0 var1))))
(assert (forall ((var0 Addr) (var1 Addr) (var2 Heap)) (not (and (inv_main70 var2 var0 var1) (not (is-O_node (read var2 var1)))))))
(assert (forall ((var0 Addr) (var1 Addr) (var2 Heap) (var3 Addr)) (not (and (inv_main85 var2 var0 var1 var3) (not (is-O_node (read var2 var1)))))))
(assert (forall ((var0 Addr) (var1 Addr) (var2 Heap) (var3 Addr)) (not (and (inv_main86 var2 var0 var1 var3) (not (is-O_node (read var2 var1)))))))
(assert (forall ((var0 Addr) (var1 Addr) (var2 Heap) (var3 Addr)) (not (and (inv_main92 var2 var0 var1 var3) (not (is-O_node (read var2 var1)))))))
(assert (forall ((var0 Addr) (var1 Addr) (var2 Heap) (var3 Addr)) (not (and (inv_main94 var2 var0 var1 var3) (not (is-O_node (read var2 var1)))))))
(assert (forall ((var0 Addr) (var1 Addr) (var2 Heap) (var3 Addr)) (not (and (inv_main93 var2 var0 var1 var3) (not (is-O_node (read var2 var1)))))))
(assert (forall ((var0 Addr) (var1 Addr) (var2 Heap) (var3 Addr)) (not (and (inv_main97 var2 var0 var1 var3) (not (is-O_node (read var2 var1)))))))
(assert (forall ((var0 Addr) (var1 Addr) (var2 Heap) (var3 Addr)) (not (and (inv_main99 var2 var0 var1 var3) (not (is-O_node (read var2 var1)))))))
(check-sat)
